Crypto/instances/samples/hf_n32/hf_n32_cnf10.sol
c DPLL-like Solver for max-min SAT
f file hf_n32_cnf10.cnf
p cnf 32 220
s max  220 8 7 -5 -6 -22 -12 -9 -11 10 -19 4 1 -2 -17 -30 -25 -3 -15 14 -16 13 -28 -18 -21 -20 -23 -26 -31 -24 -32 -27 -29
s min  192 -16 14 20 -15 13 25 24 -8 30 -9 12 11 23 -10 28 -31 27 19 32 21 -22 -26 -17 18 29 -1 -2 3 -4 -5 -6 -7